
Gurobi 11.0.3 (linux64) logging started Fri Nov 22 14:33:25 2024

Set parameter LogFile to value "/home/yihong/Coding/OR_SUC/SUC_results_bigM100000_thread4/case24_ieee_rts_theta0.5_epsilon0.025_gurobi_seed350000_num_gen100_N_WDR100_load_scaling_factor1_exact_T16quadra_cost.txt"
Set parameter TimeLimit to value 3600
Gurobi Optimizer version 11.0.3 build v11.0.3rc0 (linux64 - "Ubuntu 20.04.6 LTS")

CPU model: AMD EPYC 7532 32-Core Processor, instruction set [SSE2|AVX|AVX2]
Thread count: 64 physical cores, 128 logical processors, using up to 4 threads

Optimize a model with 34563 rows, 20041 columns and 474826 nonzeros
Model fingerprint: 0x821c3037
Model has 1600 quadratic constraints
Variable types: 18341 continuous, 1700 integer (1700 binary)
Coefficient statistics:
  Matrix range     [3e-04, 1e+05]
  QMatrix range    [2e-03, 8e-03]
  QLMatrix range   [3e-01, 6e+01]
  Objective range  [1e+00, 1e+00]
  Bounds range     [1e+00, 1e+00]
  RHS range        [1e+00, 1e+05]
Presolve removed 28008 rows and 8737 columns
Presolve time: 0.18s
Presolved: 6555 rows, 11304 columns, 43813 nonzeros
Presolved model has 1600 quadratic constraint(s)
Variable types: 9658 continuous, 1646 integer (1646 binary)

Root relaxation: objective 4.832179e+04, 5236 iterations, 0.10 seconds (0.14 work units)

    Nodes    |    Current Node    |     Objective Bounds      |     Work
 Expl Unexpl |  Obj  Depth IntInf | Incumbent    BestBd   Gap | It/Node Time

     0     0 48321.7927    0   20          - 48321.7927      -     -    0s
     0     0 298060.013    0  437          - 298060.013      -     -    0s
     0     0 461615.049    0  435          - 461615.049      -     -    0s
     0     0 461666.005    0  242          - 461666.005      -     -    0s
     0     0 461923.804    0  171          - 461923.804      -     -    0s
     0     0 461924.598    0  171          - 461924.598      -     -    0s
     0     0 462009.432    0  172          - 462009.432      -     -    1s
     0     0 462009.674    0  172          - 462009.674      -     -    1s
     0     2 462010.205    0  172          - 462010.205      -     -    1s
H  243   293                    462170.88152 462124.608  0.01%  32.6    3s
*  243   293              78    462170.88152 462124.608  0.01%  32.6    3s

Cutting planes:
  Gomory: 43
  Implied bound: 277
  MIR: 66
  Flow cover: 162
  RLT: 1

Explored 314 nodes (22575 simplex iterations) in 3.54 seconds (4.67 work units)
Thread count was 4 (of 128 available processors)

Solution count 2: 462171 462171 

Optimal solution found (tolerance 1.00e-03)
Warning: max constraint violation (5.5914e-07) exceeds tolerance
Best objective 4.621708815226e+05, best bound 4.621246081799e+05, gap 0.0100%
